p cnf 37 106
a 32 7 0
e 1 2 3 4 5 6 8 9 10 11 12 13 14 15 16 17 18 19 20 21 22 23 24 25 26 27 28 29 30 31 33 34 35 36 37 0
-3 -1 0
-3 2 0
1 -2 3 0
-5 3 0
-5 -4 0
-3 4 5 0
-2 -3 -6 0
2 3 -6 0
-2 3 6 0
2 -3 6 0
-7 -5 0
-7 -6 0
5 6 7 0
11 -4 0
11 10 0
4 -10 -11 0
12 -9 0
12 11 0
9 -11 -12 0
13 -8 0
13 12 0
8 -12 -13 0
7 -13 -14 0
-7 13 -14 0
7 13 14 0
-7 -13 14 0
-16 2 0
-16 15 0
-2 -15 16 0
17 4 0
17 -16 0
-4 16 -17 0
-3 -4 -19 0
3 4 -19 0
-3 4 19 0
3 -4 19 0
-18 19 -20 0
18 -19 -20 0
-18 -19 20 0
18 19 20 0
-21 -15 0
-21 8 0
15 -8 21 0
22 19 0
22 21 0
-19 -21 -22 0
-23 -20 0
-23 -22 0
20 22 23 0
-24 -17 0
-24 -23 0
17 23 24 0
25 -15 0
25 1 0
15 -1 -25 0
26 9 0
26 25 0
-9 -25 -26 0
27 24 0
27 26 0
-24 -26 -27 0
1 -25 -28 0
-1 25 -28 0
1 25 28 0
-1 -25 28 0
29 -28 0
29 10 0
28 -10 -29 0
30 -2 0
30 -9 0
2 9 -30 0
-31 30 0
-31 19 0
-30 -19 31 0
-32 31 0
-32 -11 0
-31 11 32 0
30 9 -33 0
-30 -9 -33 0
30 -9 33 0
-30 9 33 0
32 33 -34 0
-32 -33 -34 0
32 -33 34 0
-32 33 34 0
-35 -29 0
-35 34 0
29 -34 35 0
-36 -27 0
-36 35 0
27 -35 36 0
-14 36 -37 0
14 -36 -37 0
-14 -36 37 0
14 36 37 0
26 -5 -18 32 0
-26 -17 7 0
21 -8 36 -26 0
4 -2 -33 0
23 5 28 17 3 22 0
-36 3 21 19 11 26 9 0
-6 -37 34 -11 0
6 -9 25 4 0
5 27 10 -12 25 16 26 0
-34 -20 -24 -12 37 0
37 0
